language Essence 1.3

letting costTC be
        function((1, 1) --> 4, (1, 2) --> 9, (1, 3) --> 8, (1, 4) --> 2, (1, 5) --> 6, (1, 6) --> 2, (1, 7) --> 3,
                 (2, 1) --> 7, (2, 2) --> 6, (2, 3) --> 7, (2, 4) --> 1, (2, 5) --> 2, (2, 6) --> 1, (2, 7) --> 5,
                 (3, 1) --> 8, (3, 2) --> 4, (3, 3) --> 2, (3, 4) --> 3, (3, 5) --> 9, (3, 6) --> 6, (3, 7) --> 7,
                 (4, 1) --> 5, (4, 2) --> 10, (4, 3) --> 8, (4, 4) --> 6, (4, 5) --> 9, (4, 6) --> 7, (4, 7) --> 9,
                 (5, 1) --> 3, (5, 2) --> 8, (5, 3) --> 6, (5, 4) --> 3, (5, 5) --> 10, (5, 6) --> 7, (5, 7) --> 3,
                 (6, 1) --> 4, (6, 2) --> 3, (6, 3) --> 5, (6, 4) --> 9, (6, 5) --> 4, (6, 6) --> 3, (6, 7) --> 6,
                 (7, 1) --> 9, (7, 2) --> 6, (7, 3) --> 4, (7, 4) --> 1, (7, 5) --> 8, (7, 6) --> 10, (7, 7) --> 9,
                 (8, 1) --> 8, (8, 2) --> 8, (8, 3) --> 9, (8, 4) --> 2, (8, 5) --> 10, (8, 6) --> 1, (8, 7) --> 4,
                 (9, 1) --> 4, (9, 2) --> 8, (9, 3) --> 8, (9, 4) --> 3, (9, 5) --> 6, (9, 6) --> 9, (9, 7) --> 2,
                 (10, 1) --> 1, (10, 2) --> 6, (10, 3) --> 4, (10, 4) --> 2, (10, 5) --> 9, (10, 6) --> 5,
                 (10, 7) --> 8, (11, 1) --> 10, (11, 2) --> 5, (11, 3) --> 1, (11, 4) --> 8, (11, 5) --> 7,
                 (11, 6) --> 8, (11, 7) --> 4, (12, 1) --> 4, (12, 2) --> 9, (12, 3) --> 6, (12, 4) --> 9,
                 (12, 5) --> 5, (12, 6) --> 9, (12, 7) --> 6, (13, 1) --> 5, (13, 2) --> 10, (13, 3) --> 6,
                 (13, 4) --> 2, (13, 5) --> 6, (13, 6) --> 1, (13, 7) --> 7, (14, 1) --> 10, (14, 2) --> 4,
                 (14, 3) --> 7, (14, 4) --> 5, (14, 5) --> 3, (14, 6) --> 4, (14, 7) --> 6, (15, 1) --> 10,
                 (15, 2) --> 7, (15, 3) --> 5, (15, 4) --> 6, (15, 5) --> 4, (15, 6) --> 3, (15, 7) --> 9,
                 (16, 1) --> 8, (16, 2) --> 6, (16, 3) --> 4, (16, 4) --> 8, (16, 5) --> 2, (16, 6) --> 9,
                 (16, 7) --> 3, (17, 1) --> 8, (17, 2) --> 8, (17, 3) --> 9, (17, 4) --> 10, (17, 5) --> 10,
                 (17, 6) --> 2, (17, 7) --> 9, (18, 1) --> 4, (18, 2) --> 8, (18, 3) --> 4, (18, 4) --> 7,
                 (18, 5) --> 9, (18, 6) --> 6, (18, 7) --> 9, (19, 1) --> 3, (19, 2) --> 4, (19, 3) --> 7,
                 (19, 4) --> 4, (19, 5) --> 2, (19, 6) --> 4, (19, 7) --> 7, (20, 1) --> 8, (20, 2) --> 5,
                 (20, 3) --> 2, (20, 4) --> 10, (20, 5) --> 4, (20, 6) --> 10, (20, 7) --> 3, (21, 1) --> 1,
                 (21, 2) --> 5, (21, 3) --> 1, (21, 4) --> 10, (21, 5) --> 1, (21, 6) --> 2, (21, 7) --> 5,
                 (22, 1) --> 10, (22, 2) --> 3, (22, 3) --> 5, (22, 4) --> 9, (22, 5) --> 1, (22, 6) --> 5,
                 (22, 7) --> 5, (23, 1) --> 2, (23, 2) --> 5, (23, 3) --> 8, (23, 4) --> 10, (23, 5) --> 8,
                 (23, 6) --> 1, (23, 7) --> 4, (24, 1) --> 10, (24, 2) --> 8, (24, 3) --> 1, (24, 4) --> 5,
                 (24, 5) --> 6, (24, 6) --> 9, (24, 7) --> 6, (25, 1) --> 9, (25, 2) --> 2, (25, 3) --> 7,
                 (25, 4) --> 6, (25, 5) --> 3, (25, 6) --> 5, (25, 7) --> 10, (26, 1) --> 4, (26, 2) --> 2,
                 (26, 3) --> 9, (26, 4) --> 2, (26, 5) --> 3, (26, 6) --> 3, (26, 7) --> 4, (27, 1) --> 8,
                 (27, 2) --> 2, (27, 3) --> 10, (27, 4) --> 3, (27, 5) --> 10, (27, 6) --> 9, (27, 7) --> 9,
                 (28, 1) --> 7, (28, 2) --> 5, (28, 3) --> 10, (28, 4) --> 3, (28, 5) --> 5, (28, 6) --> 4,
                 (28, 7) --> 1, (29, 1) --> 1, (29, 2) --> 7, (29, 3) --> 8, (29, 4) --> 5, (29, 5) --> 8,
                 (29, 6) --> 5, (29, 7) --> 1, (30, 1) --> 1, (30, 2) --> 4, (30, 3) --> 1, (30, 4) --> 10,
                 (30, 5) --> 2, (30, 6) --> 6, (30, 7) --> 7, (31, 1) --> 8, (31, 2) --> 8, (31, 3) --> 3,
                 (31, 4) --> 4, (31, 5) --> 1, (31, 6) --> 3, (31, 7) --> 6, (32, 1) --> 4, (32, 2) --> 8,
                 (32, 3) --> 2, (32, 4) --> 9, (32, 5) --> 4, (32, 6) --> 5, (32, 7) --> 1, (33, 1) --> 2,
                 (33, 2) --> 1, (33, 3) --> 5, (33, 4) --> 6, (33, 5) --> 2, (33, 6) --> 3, (33, 7) --> 5,
                 (34, 1) --> 8, (34, 2) --> 7, (34, 3) --> 6, (34, 4) --> 3, (34, 5) --> 1, (34, 6) --> 8,
                 (34, 7) --> 3, (35, 1) --> 3, (35, 2) --> 7, (35, 3) --> 7, (35, 4) --> 3, (35, 5) --> 7,
                 (35, 6) --> 9, (35, 7) --> 8, (36, 1) --> 4, (36, 2) --> 6, (36, 3) --> 2, (36, 4) --> 4,
                 (36, 5) --> 6, (36, 6) --> 4, (36, 7) --> 2, (37, 1) --> 6, (37, 2) --> 10, (37, 3) --> 3,
                 (37, 4) --> 8, (37, 5) --> 7, (37, 6) --> 4, (37, 7) --> 3, (38, 1) --> 7, (38, 2) --> 9,
                 (38, 3) --> 2, (38, 4) --> 2, (38, 5) --> 3, (38, 6) --> 4, (38, 7) --> 10, (39, 1) --> 10,
                 (39, 2) --> 2, (39, 3) --> 6, (39, 4) --> 9, (39, 5) --> 3, (39, 6) --> 3, (39, 7) --> 2,
                 (40, 1) --> 10, (40, 2) --> 1, (40, 3) --> 4, (40, 4) --> 8, (40, 5) --> 3, (40, 6) --> 8,
                 (40, 7) --> 3, (41, 1) --> 3, (41, 2) --> 9, (41, 3) --> 1, (41, 4) --> 6, (41, 5) --> 1,
                 (41, 6) --> 9, (41, 7) --> 5)
letting costWT be
        function((1, 1) --> 4, (1, 2) --> 6, (1, 3) --> 5, (1, 4) --> 7, (1, 5) --> 6, (1, 6) --> 6, (1, 7) --> 7,
                 (1, 8) --> 7, (1, 9) --> 6, (1, 10) --> 5, (1, 11) --> 7, (1, 12) --> 5, (1, 13) --> 7, (1, 14) --> 5,
                 (1, 15) --> 7, (1, 16) --> 7, (1, 17) --> 3, (1, 18) --> 3, (1, 19) --> 3, (1, 20) --> 5,
                 (1, 21) --> 4, (1, 22) --> 4, (1, 23) --> 4, (1, 24) --> 4, (1, 25) --> 7, (1, 26) --> 5,
                 (1, 27) --> 4, (1, 28) --> 4, (1, 29) --> 5, (1, 30) --> 7, (1, 31) --> 5, (1, 32) --> 3,
                 (1, 33) --> 7, (1, 34) --> 6, (1, 35) --> 7, (1, 36) --> 6, (1, 37) --> 4, (1, 38) --> 5,
                 (1, 39) --> 6, (1, 40) --> 5, (1, 41) --> 3, (2, 1) --> 7, (2, 2) --> 3, (2, 3) --> 5, (2, 4) --> 6,
                 (2, 5) --> 3, (2, 6) --> 3, (2, 7) --> 6, (2, 8) --> 5, (2, 9) --> 5, (2, 10) --> 5, (2, 11) --> 6,
                 (2, 12) --> 7, (2, 13) --> 5, (2, 14) --> 3, (2, 15) --> 3, (2, 16) --> 4, (2, 17) --> 6,
                 (2, 18) --> 3, (2, 19) --> 3, (2, 20) --> 6, (2, 21) --> 7, (2, 22) --> 5, (2, 23) --> 4,
                 (2, 24) --> 5, (2, 25) --> 4, (2, 26) --> 6, (2, 27) --> 7, (2, 28) --> 7, (2, 29) --> 4,
                 (2, 30) --> 3, (2, 31) --> 7, (2, 32) --> 5, (2, 33) --> 7, (2, 34) --> 3, (2, 35) --> 3,
                 (2, 36) --> 5, (2, 37) --> 3, (2, 38) --> 4, (2, 39) --> 4, (2, 40) --> 6, (2, 41) --> 7, (3, 1) --> 3,
                 (3, 2) --> 7, (3, 3) --> 3, (3, 4) --> 4, (3, 5) --> 5, (3, 6) --> 5, (3, 7) --> 7, (3, 8) --> 7,
                 (3, 9) --> 4, (3, 10) --> 5, (3, 11) --> 3, (3, 12) --> 3, (3, 13) --> 7, (3, 14) --> 5, (3, 15) --> 4,
                 (3, 16) --> 7, (3, 17) --> 7, (3, 18) --> 5, (3, 19) --> 6, (3, 20) --> 4, (3, 21) --> 6,
                 (3, 22) --> 6, (3, 23) --> 5, (3, 24) --> 3, (3, 25) --> 4, (3, 26) --> 3, (3, 27) --> 3,
                 (3, 28) --> 5, (3, 29) --> 6, (3, 30) --> 6, (3, 31) --> 6, (3, 32) --> 4, (3, 33) --> 6,
                 (3, 34) --> 7, (3, 35) --> 5, (3, 36) --> 5, (3, 37) --> 4, (3, 38) --> 6, (3, 39) --> 3,
                 (3, 40) --> 3, (3, 41) --> 5, (4, 1) --> 3, (4, 2) --> 4, (4, 3) --> 5, (4, 4) --> 4, (4, 5) --> 3,
                 (4, 6) --> 5, (4, 7) --> 5, (4, 8) --> 6, (4, 9) --> 3, (4, 10) --> 4, (4, 11) --> 4, (4, 12) --> 7,
                 (4, 13) --> 4, (4, 14) --> 3, (4, 15) --> 4, (4, 16) --> 7, (4, 17) --> 7, (4, 18) --> 5,
                 (4, 19) --> 4, (4, 20) --> 3, (4, 21) --> 5, (4, 22) --> 7, (4, 23) --> 4, (4, 24) --> 3,
                 (4, 25) --> 3, (4, 26) --> 7, (4, 27) --> 3, (4, 28) --> 5, (4, 29) --> 7, (4, 30) --> 7,
                 (4, 31) --> 3, (4, 32) --> 3, (4, 33) --> 7, (4, 34) --> 5, (4, 35) --> 6, (4, 36) --> 6,
                 (4, 37) --> 5, (4, 38) --> 6, (4, 39) --> 3, (4, 40) --> 7, (4, 41) --> 6, (5, 1) --> 7, (5, 2) --> 3,
                 (5, 3) --> 3, (5, 4) --> 3, (5, 5) --> 7, (5, 6) --> 3, (5, 7) --> 4, (5, 8) --> 7, (5, 9) --> 5,
                 (5, 10) --> 3, (5, 11) --> 3, (5, 12) --> 4, (5, 13) --> 4, (5, 14) --> 5, (5, 15) --> 3,
                 (5, 16) --> 5, (5, 17) --> 5, (5, 18) --> 5, (5, 19) --> 4, (5, 20) --> 6, (5, 21) --> 3,
                 (5, 22) --> 3, (5, 23) --> 6, (5, 24) --> 3, (5, 25) --> 5, (5, 26) --> 3, (5, 27) --> 3,
                 (5, 28) --> 7, (5, 29) --> 4, (5, 30) --> 7, (5, 31) --> 4, (5, 32) --> 4, (5, 33) --> 4,
                 (5, 34) --> 7, (5, 35) --> 5, (5, 36) --> 6, (5, 37) --> 5, (5, 38) --> 4, (5, 39) --> 6,
                 (5, 40) --> 5, (5, 41) --> 4)
letting demand be function(1 --> 25, 2 --> 25, 3 --> 25, 4 --> 25, 5 --> 25, 6 --> 25, 7 --> 25)
letting maxCost be 29
letting n_customer be 7
letting n_transshipment be 41
letting n_warehouses be 5
letting stock be function(1 --> 42, 2 --> 48, 3 --> 50, 4 --> 46, 5 --> 49)
